1 - 426
2 - 2
3 - 2
4 - 5
5 - 1
6 - 2
7 - 2
8 - 3
9 - 6
10 - 4
11 - 2
12 - 6
13 - 6
14 - 6
15 - 4
16 - 5
17 - 7
18 - 5
19 - 5
20 - 8
21 - 8
22 - 5
23 - 7
24 - 14
25 - 13
26 - 15
27 - 10
28 - 14
29 - 20
30 - 15
31 - 15
32 - 19
33 - 21
34 - 19
35 - 17
36 - 22
37 - 16
38 - 17
39 - 19
40 - 15
41 - 19
42 - 10
43 - 22
44 - 9
45 - 15
46 - 19
47 - 27
48 - 25
49 - 29
50 - 17
Average: 20